WARNING: for repeatability, setting FPU to use double precision
============================[ Problem Statistics ]=============================
|                                                                             |
|  Number of variables:         69839                                         |
|  Number of clauses:          275980                                         |
|  Parse time:                   0.05 s                                       |
|                                                                             |
c ============================[ Search Statistics ]==============================
c | Conflicts |          ORIGINAL         |          LEARNT          | Progress |
c |           |    Vars  Clauses Literals |    Limit  Clauses Lit/Cl |          |
c ===============================================================================
c Switched to VSIDS.
c Switched to LRB.
c Switched to VSIDS.
c ===============================================================================
restarts                  : 382
conflicts                 : 89849          (1930 /sec)
decisions                 : 8566231        (0.00 % random) (183993 /sec)
propagations              : 131300075      (2820177 /sec)
conflict literals         : 5525375        (20.19 % deleted)

conflicts w/ DIP found    : 72837          (81.07 % of conflicts)
conflicts w/ dangerous DIP: 0              (0.00 % of conflicts)
conflicts w/ DIP-learning : 4              (0.00 % of conflicts)
decisions on ext vars     : 55             (0.00 % of decisions)
total ext vars            : 2           
tried delete ext vars     : 0           
deleted ext vars          : 0           
max ext vars              : 2           

Memory used               : 76.00 MB
CPU time                  : 46.5574 s
DIP computation time      : 1.04803 s (2.25 % of total time)
ER_sel time               : 0.115444 s
ER_add time               : 2.7e-05 s
ER_delC time              : 0 s
ER_delV time              : 0 s
ER_sub time               : 0.146309 s
ER_stat time              : 0 s

SATISFIABLE
